(set-logic QF_LRA)
(declare-fun X0 () Real )
(declare-fun Y0 () Real )
(declare-fun X1 () Real )
(declare-fun Y1 () Real )
(declare-fun X2 () Real )
(declare-fun Y2 () Real )
(declare-fun X3 () Real )
(declare-fun Y3 () Real )
(declare-fun X4 () Real )
(declare-fun Y4 () Real )
(declare-fun X5 () Real )
(declare-fun Y5 () Real )
(declare-fun X6 () Real )
(declare-fun Y6 () Real )
(declare-fun X7 () Real )
(declare-fun Y7 () Real )
(declare-fun X8 () Real )
(declare-fun Y8 () Real )
(declare-fun X9 () Real )
(declare-fun Y9 () Real )
(declare-fun X10 () Real )
(declare-fun Y10 () Real )
(declare-fun X11 () Real )
(declare-fun Y11 () Real )
(declare-fun X12 () Real )
(declare-fun Y12 () Real )
(declare-fun X13 () Real )
(declare-fun Y13 () Real )
(declare-fun X14 () Real )
(declare-fun Y14 () Real )
(declare-fun X15 () Real )
(declare-fun Y15 () Real )
(declare-fun X16 () Real )
(declare-fun Y16 () Real )
(declare-fun X17 () Real )
(declare-fun Y17 () Real )
(declare-fun Z () Real )
(assert ( and  
( or ( <= ( + X0 94 ) X1 )  ( <= ( + X1 27 ) X0 )  ( <= ( + Y0 97 ) Y1 )  ( <= ( + Y1 71 ) Y0 )  )
( or ( <= ( + X0 94 ) X2 )  ( <= ( + X2 32 ) X0 )  ( <= ( + Y0 97 ) Y2 )  ( <= ( + Y2 71 ) Y0 )  )
( or ( <= ( + X0 94 ) X3 )  ( <= ( + X3 48 ) X0 )  ( <= ( + Y0 97 ) Y3 )  ( <= ( + Y3 32 ) Y0 )  )
( or ( <= ( + X0 94 ) X4 )  ( <= ( + X4 74 ) X0 )  ( <= ( + Y0 97 ) Y4 )  ( <= ( + Y4 92 ) Y0 )  )
( or ( <= ( + X0 94 ) X5 )  ( <= ( + X5 5 ) X0 )  ( <= ( + Y0 97 ) Y5 )  ( <= ( + Y5 15 ) Y0 )  )
( or ( <= ( + X0 94 ) X6 )  ( <= ( + X6 23 ) X0 )  ( <= ( + Y0 97 ) Y6 )  ( <= ( + Y6 60 ) Y0 )  )
( or ( <= ( + X0 94 ) X7 )  ( <= ( + X7 99 ) X0 )  ( <= ( + Y0 97 ) Y7 )  ( <= ( + Y7 51 ) Y0 )  )
( or ( <= ( + X0 94 ) X8 )  ( <= ( + X8 53 ) X0 )  ( <= ( + Y0 97 ) Y8 )  ( <= ( + Y8 19 ) Y0 )  )
( or ( <= ( + X0 94 ) X9 )  ( <= ( + X9 83 ) X0 )  ( <= ( + Y0 97 ) Y9 )  ( <= ( + Y9 77 ) Y0 )  )
( or ( <= ( + X0 94 ) X10 )  ( <= ( + X10 74 ) X0 )  ( <= ( + Y0 97 ) Y10 )  ( <= ( + Y10 22 ) Y0 )  )
( or ( <= ( + X0 94 ) X11 )  ( <= ( + X11 32 ) X0 )  ( <= ( + Y0 97 ) Y11 )  ( <= ( + Y11 95 ) Y0 )  )
( or ( <= ( + X0 94 ) X12 )  ( <= ( + X12 98 ) X0 )  ( <= ( + Y0 97 ) Y12 )  ( <= ( + Y12 10 ) Y0 )  )
( or ( <= ( + X0 94 ) X13 )  ( <= ( + X13 71 ) X0 )  ( <= ( + Y0 97 ) Y13 )  ( <= ( + Y13 67 ) Y0 )  )
( or ( <= ( + X0 94 ) X14 )  ( <= ( + X14 25 ) X0 )  ( <= ( + Y0 97 ) Y14 )  ( <= ( + Y14 21 ) Y0 )  )
( or ( <= ( + X0 94 ) X15 )  ( <= ( + X15 7 ) X0 )  ( <= ( + Y0 97 ) Y15 )  ( <= ( + Y15 93 ) Y0 )  )
( or ( <= ( + X0 94 ) X16 )  ( <= ( + X16 53 ) X0 )  ( <= ( + Y0 97 ) Y16 )  ( <= ( + Y16 15 ) Y0 )  )
( or ( <= ( + X0 94 ) X17 )  ( <= ( + X17 87 ) X0 )  ( <= ( + Y0 97 ) Y17 )  ( <= ( + Y17 47 ) Y0 )  )
( or ( <= ( + X1 27 ) X2 )  ( <= ( + X2 32 ) X1 )  ( <= ( + Y1 71 ) Y2 )  ( <= ( + Y2 71 ) Y1 )  )
( or ( <= ( + X1 27 ) X3 )  ( <= ( + X3 48 ) X1 )  ( <= ( + Y1 71 ) Y3 )  ( <= ( + Y3 32 ) Y1 )  )
( or ( <= ( + X1 27 ) X4 )  ( <= ( + X4 74 ) X1 )  ( <= ( + Y1 71 ) Y4 )  ( <= ( + Y4 92 ) Y1 )  )
( or ( <= ( + X1 27 ) X5 )  ( <= ( + X5 5 ) X1 )  ( <= ( + Y1 71 ) Y5 )  ( <= ( + Y5 15 ) Y1 )  )
( or ( <= ( + X1 27 ) X6 )  ( <= ( + X6 23 ) X1 )  ( <= ( + Y1 71 ) Y6 )  ( <= ( + Y6 60 ) Y1 )  )
( or ( <= ( + X1 27 ) X7 )  ( <= ( + X7 99 ) X1 )  ( <= ( + Y1 71 ) Y7 )  ( <= ( + Y7 51 ) Y1 )  )
( or ( <= ( + X1 27 ) X8 )  ( <= ( + X8 53 ) X1 )  ( <= ( + Y1 71 ) Y8 )  ( <= ( + Y8 19 ) Y1 )  )
( or ( <= ( + X1 27 ) X9 )  ( <= ( + X9 83 ) X1 )  ( <= ( + Y1 71 ) Y9 )  ( <= ( + Y9 77 ) Y1 )  )
( or ( <= ( + X1 27 ) X10 )  ( <= ( + X10 74 ) X1 )  ( <= ( + Y1 71 ) Y10 )  ( <= ( + Y10 22 ) Y1 )  )
( or ( <= ( + X1 27 ) X11 )  ( <= ( + X11 32 ) X1 )  ( <= ( + Y1 71 ) Y11 )  ( <= ( + Y11 95 ) Y1 )  )
( or ( <= ( + X1 27 ) X12 )  ( <= ( + X12 98 ) X1 )  ( <= ( + Y1 71 ) Y12 )  ( <= ( + Y12 10 ) Y1 )  )
( or ( <= ( + X1 27 ) X13 )  ( <= ( + X13 71 ) X1 )  ( <= ( + Y1 71 ) Y13 )  ( <= ( + Y13 67 ) Y1 )  )
( or ( <= ( + X1 27 ) X14 )  ( <= ( + X14 25 ) X1 )  ( <= ( + Y1 71 ) Y14 )  ( <= ( + Y14 21 ) Y1 )  )
( or ( <= ( + X1 27 ) X15 )  ( <= ( + X15 7 ) X1 )  ( <= ( + Y1 71 ) Y15 )  ( <= ( + Y15 93 ) Y1 )  )
( or ( <= ( + X1 27 ) X16 )  ( <= ( + X16 53 ) X1 )  ( <= ( + Y1 71 ) Y16 )  ( <= ( + Y16 15 ) Y1 )  )
( or ( <= ( + X1 27 ) X17 )  ( <= ( + X17 87 ) X1 )  ( <= ( + Y1 71 ) Y17 )  ( <= ( + Y17 47 ) Y1 )  )
( or ( <= ( + X2 32 ) X3 )  ( <= ( + X3 48 ) X2 )  ( <= ( + Y2 71 ) Y3 )  ( <= ( + Y3 32 ) Y2 )  )
( or ( <= ( + X2 32 ) X4 )  ( <= ( + X4 74 ) X2 )  ( <= ( + Y2 71 ) Y4 )  ( <= ( + Y4 92 ) Y2 )  )
( or ( <= ( + X2 32 ) X5 )  ( <= ( + X5 5 ) X2 )  ( <= ( + Y2 71 ) Y5 )  ( <= ( + Y5 15 ) Y2 )  )
( or ( <= ( + X2 32 ) X6 )  ( <= ( + X6 23 ) X2 )  ( <= ( + Y2 71 ) Y6 )  ( <= ( + Y6 60 ) Y2 )  )
( or ( <= ( + X2 32 ) X7 )  ( <= ( + X7 99 ) X2 )  ( <= ( + Y2 71 ) Y7 )  ( <= ( + Y7 51 ) Y2 )  )
( or ( <= ( + X2 32 ) X8 )  ( <= ( + X8 53 ) X2 )  ( <= ( + Y2 71 ) Y8 )  ( <= ( + Y8 19 ) Y2 )  )
( or ( <= ( + X2 32 ) X9 )  ( <= ( + X9 83 ) X2 )  ( <= ( + Y2 71 ) Y9 )  ( <= ( + Y9 77 ) Y2 )  )
( or ( <= ( + X2 32 ) X10 )  ( <= ( + X10 74 ) X2 )  ( <= ( + Y2 71 ) Y10 )  ( <= ( + Y10 22 ) Y2 )  )
( or ( <= ( + X2 32 ) X11 )  ( <= ( + X11 32 ) X2 )  ( <= ( + Y2 71 ) Y11 )  ( <= ( + Y11 95 ) Y2 )  )
( or ( <= ( + X2 32 ) X12 )  ( <= ( + X12 98 ) X2 )  ( <= ( + Y2 71 ) Y12 )  ( <= ( + Y12 10 ) Y2 )  )
( or ( <= ( + X2 32 ) X13 )  ( <= ( + X13 71 ) X2 )  ( <= ( + Y2 71 ) Y13 )  ( <= ( + Y13 67 ) Y2 )  )
( or ( <= ( + X2 32 ) X14 )  ( <= ( + X14 25 ) X2 )  ( <= ( + Y2 71 ) Y14 )  ( <= ( + Y14 21 ) Y2 )  )
( or ( <= ( + X2 32 ) X15 )  ( <= ( + X15 7 ) X2 )  ( <= ( + Y2 71 ) Y15 )  ( <= ( + Y15 93 ) Y2 )  )
( or ( <= ( + X2 32 ) X16 )  ( <= ( + X16 53 ) X2 )  ( <= ( + Y2 71 ) Y16 )  ( <= ( + Y16 15 ) Y2 )  )
( or ( <= ( + X2 32 ) X17 )  ( <= ( + X17 87 ) X2 )  ( <= ( + Y2 71 ) Y17 )  ( <= ( + Y17 47 ) Y2 )  )
( or ( <= ( + X3 48 ) X4 )  ( <= ( + X4 74 ) X3 )  ( <= ( + Y3 32 ) Y4 )  ( <= ( + Y4 92 ) Y3 )  )
( or ( <= ( + X3 48 ) X5 )  ( <= ( + X5 5 ) X3 )  ( <= ( + Y3 32 ) Y5 )  ( <= ( + Y5 15 ) Y3 )  )
( or ( <= ( + X3 48 ) X6 )  ( <= ( + X6 23 ) X3 )  ( <= ( + Y3 32 ) Y6 )  ( <= ( + Y6 60 ) Y3 )  )
( or ( <= ( + X3 48 ) X7 )  ( <= ( + X7 99 ) X3 )  ( <= ( + Y3 32 ) Y7 )  ( <= ( + Y7 51 ) Y3 )  )
( or ( <= ( + X3 48 ) X8 )  ( <= ( + X8 53 ) X3 )  ( <= ( + Y3 32 ) Y8 )  ( <= ( + Y8 19 ) Y3 )  )
( or ( <= ( + X3 48 ) X9 )  ( <= ( + X9 83 ) X3 )  ( <= ( + Y3 32 ) Y9 )  ( <= ( + Y9 77 ) Y3 )  )
( or ( <= ( + X3 48 ) X10 )  ( <= ( + X10 74 ) X3 )  ( <= ( + Y3 32 ) Y10 )  ( <= ( + Y10 22 ) Y3 )  )
( or ( <= ( + X3 48 ) X11 )  ( <= ( + X11 32 ) X3 )  ( <= ( + Y3 32 ) Y11 )  ( <= ( + Y11 95 ) Y3 )  )
( or ( <= ( + X3 48 ) X12 )  ( <= ( + X12 98 ) X3 )  ( <= ( + Y3 32 ) Y12 )  ( <= ( + Y12 10 ) Y3 )  )
( or ( <= ( + X3 48 ) X13 )  ( <= ( + X13 71 ) X3 )  ( <= ( + Y3 32 ) Y13 )  ( <= ( + Y13 67 ) Y3 )  )
( or ( <= ( + X3 48 ) X14 )  ( <= ( + X14 25 ) X3 )  ( <= ( + Y3 32 ) Y14 )  ( <= ( + Y14 21 ) Y3 )  )
( or ( <= ( + X3 48 ) X15 )  ( <= ( + X15 7 ) X3 )  ( <= ( + Y3 32 ) Y15 )  ( <= ( + Y15 93 ) Y3 )  )
( or ( <= ( + X3 48 ) X16 )  ( <= ( + X16 53 ) X3 )  ( <= ( + Y3 32 ) Y16 )  ( <= ( + Y16 15 ) Y3 )  )
( or ( <= ( + X3 48 ) X17 )  ( <= ( + X17 87 ) X3 )  ( <= ( + Y3 32 ) Y17 )  ( <= ( + Y17 47 ) Y3 )  )
( or ( <= ( + X4 74 ) X5 )  ( <= ( + X5 5 ) X4 )  ( <= ( + Y4 92 ) Y5 )  ( <= ( + Y5 15 ) Y4 )  )
( or ( <= ( + X4 74 ) X6 )  ( <= ( + X6 23 ) X4 )  ( <= ( + Y4 92 ) Y6 )  ( <= ( + Y6 60 ) Y4 )  )
( or ( <= ( + X4 74 ) X7 )  ( <= ( + X7 99 ) X4 )  ( <= ( + Y4 92 ) Y7 )  ( <= ( + Y7 51 ) Y4 )  )
( or ( <= ( + X4 74 ) X8 )  ( <= ( + X8 53 ) X4 )  ( <= ( + Y4 92 ) Y8 )  ( <= ( + Y8 19 ) Y4 )  )
( or ( <= ( + X4 74 ) X9 )  ( <= ( + X9 83 ) X4 )  ( <= ( + Y4 92 ) Y9 )  ( <= ( + Y9 77 ) Y4 )  )
( or ( <= ( + X4 74 ) X10 )  ( <= ( + X10 74 ) X4 )  ( <= ( + Y4 92 ) Y10 )  ( <= ( + Y10 22 ) Y4 )  )
( or ( <= ( + X4 74 ) X11 )  ( <= ( + X11 32 ) X4 )  ( <= ( + Y4 92 ) Y11 )  ( <= ( + Y11 95 ) Y4 )  )
( or ( <= ( + X4 74 ) X12 )  ( <= ( + X12 98 ) X4 )  ( <= ( + Y4 92 ) Y12 )  ( <= ( + Y12 10 ) Y4 )  )
( or ( <= ( + X4 74 ) X13 )  ( <= ( + X13 71 ) X4 )  ( <= ( + Y4 92 ) Y13 )  ( <= ( + Y13 67 ) Y4 )  )
( or ( <= ( + X4 74 ) X14 )  ( <= ( + X14 25 ) X4 )  ( <= ( + Y4 92 ) Y14 )  ( <= ( + Y14 21 ) Y4 )  )
( or ( <= ( + X4 74 ) X15 )  ( <= ( + X15 7 ) X4 )  ( <= ( + Y4 92 ) Y15 )  ( <= ( + Y15 93 ) Y4 )  )
( or ( <= ( + X4 74 ) X16 )  ( <= ( + X16 53 ) X4 )  ( <= ( + Y4 92 ) Y16 )  ( <= ( + Y16 15 ) Y4 )  )
( or ( <= ( + X4 74 ) X17 )  ( <= ( + X17 87 ) X4 )  ( <= ( + Y4 92 ) Y17 )  ( <= ( + Y17 47 ) Y4 )  )
( or ( <= ( + X5 5 ) X6 )  ( <= ( + X6 23 ) X5 )  ( <= ( + Y5 15 ) Y6 )  ( <= ( + Y6 60 ) Y5 )  )
( or ( <= ( + X5 5 ) X7 )  ( <= ( + X7 99 ) X5 )  ( <= ( + Y5 15 ) Y7 )  ( <= ( + Y7 51 ) Y5 )  )
( or ( <= ( + X5 5 ) X8 )  ( <= ( + X8 53 ) X5 )  ( <= ( + Y5 15 ) Y8 )  ( <= ( + Y8 19 ) Y5 )  )
( or ( <= ( + X5 5 ) X9 )  ( <= ( + X9 83 ) X5 )  ( <= ( + Y5 15 ) Y9 )  ( <= ( + Y9 77 ) Y5 )  )
( or ( <= ( + X5 5 ) X10 )  ( <= ( + X10 74 ) X5 )  ( <= ( + Y5 15 ) Y10 )  ( <= ( + Y10 22 ) Y5 )  )
( or ( <= ( + X5 5 ) X11 )  ( <= ( + X11 32 ) X5 )  ( <= ( + Y5 15 ) Y11 )  ( <= ( + Y11 95 ) Y5 )  )
( or ( <= ( + X5 5 ) X12 )  ( <= ( + X12 98 ) X5 )  ( <= ( + Y5 15 ) Y12 )  ( <= ( + Y12 10 ) Y5 )  )
( or ( <= ( + X5 5 ) X13 )  ( <= ( + X13 71 ) X5 )  ( <= ( + Y5 15 ) Y13 )  ( <= ( + Y13 67 ) Y5 )  )
( or ( <= ( + X5 5 ) X14 )  ( <= ( + X14 25 ) X5 )  ( <= ( + Y5 15 ) Y14 )  ( <= ( + Y14 21 ) Y5 )  )
( or ( <= ( + X5 5 ) X15 )  ( <= ( + X15 7 ) X5 )  ( <= ( + Y5 15 ) Y15 )  ( <= ( + Y15 93 ) Y5 )  )
( or ( <= ( + X5 5 ) X16 )  ( <= ( + X16 53 ) X5 )  ( <= ( + Y5 15 ) Y16 )  ( <= ( + Y16 15 ) Y5 )  )
( or ( <= ( + X5 5 ) X17 )  ( <= ( + X17 87 ) X5 )  ( <= ( + Y5 15 ) Y17 )  ( <= ( + Y17 47 ) Y5 )  )
( or ( <= ( + X6 23 ) X7 )  ( <= ( + X7 99 ) X6 )  ( <= ( + Y6 60 ) Y7 )  ( <= ( + Y7 51 ) Y6 )  )
( or ( <= ( + X6 23 ) X8 )  ( <= ( + X8 53 ) X6 )  ( <= ( + Y6 60 ) Y8 )  ( <= ( + Y8 19 ) Y6 )  )
( or ( <= ( + X6 23 ) X9 )  ( <= ( + X9 83 ) X6 )  ( <= ( + Y6 60 ) Y9 )  ( <= ( + Y9 77 ) Y6 )  )
( or ( <= ( + X6 23 ) X10 )  ( <= ( + X10 74 ) X6 )  ( <= ( + Y6 60 ) Y10 )  ( <= ( + Y10 22 ) Y6 )  )
( or ( <= ( + X6 23 ) X11 )  ( <= ( + X11 32 ) X6 )  ( <= ( + Y6 60 ) Y11 )  ( <= ( + Y11 95 ) Y6 )  )
( or ( <= ( + X6 23 ) X12 )  ( <= ( + X12 98 ) X6 )  ( <= ( + Y6 60 ) Y12 )  ( <= ( + Y12 10 ) Y6 )  )
( or ( <= ( + X6 23 ) X13 )  ( <= ( + X13 71 ) X6 )  ( <= ( + Y6 60 ) Y13 )  ( <= ( + Y13 67 ) Y6 )  )
( or ( <= ( + X6 23 ) X14 )  ( <= ( + X14 25 ) X6 )  ( <= ( + Y6 60 ) Y14 )  ( <= ( + Y14 21 ) Y6 )  )
( or ( <= ( + X6 23 ) X15 )  ( <= ( + X15 7 ) X6 )  ( <= ( + Y6 60 ) Y15 )  ( <= ( + Y15 93 ) Y6 )  )
( or ( <= ( + X6 23 ) X16 )  ( <= ( + X16 53 ) X6 )  ( <= ( + Y6 60 ) Y16 )  ( <= ( + Y16 15 ) Y6 )  )
( or ( <= ( + X6 23 ) X17 )  ( <= ( + X17 87 ) X6 )  ( <= ( + Y6 60 ) Y17 )  ( <= ( + Y17 47 ) Y6 )  )
( or ( <= ( + X7 99 ) X8 )  ( <= ( + X8 53 ) X7 )  ( <= ( + Y7 51 ) Y8 )  ( <= ( + Y8 19 ) Y7 )  )
( or ( <= ( + X7 99 ) X9 )  ( <= ( + X9 83 ) X7 )  ( <= ( + Y7 51 ) Y9 )  ( <= ( + Y9 77 ) Y7 )  )
( or ( <= ( + X7 99 ) X10 )  ( <= ( + X10 74 ) X7 )  ( <= ( + Y7 51 ) Y10 )  ( <= ( + Y10 22 ) Y7 )  )
( or ( <= ( + X7 99 ) X11 )  ( <= ( + X11 32 ) X7 )  ( <= ( + Y7 51 ) Y11 )  ( <= ( + Y11 95 ) Y7 )  )
( or ( <= ( + X7 99 ) X12 )  ( <= ( + X12 98 ) X7 )  ( <= ( + Y7 51 ) Y12 )  ( <= ( + Y12 10 ) Y7 )  )
( or ( <= ( + X7 99 ) X13 )  ( <= ( + X13 71 ) X7 )  ( <= ( + Y7 51 ) Y13 )  ( <= ( + Y13 67 ) Y7 )  )
( or ( <= ( + X7 99 ) X14 )  ( <= ( + X14 25 ) X7 )  ( <= ( + Y7 51 ) Y14 )  ( <= ( + Y14 21 ) Y7 )  )
( or ( <= ( + X7 99 ) X15 )  ( <= ( + X15 7 ) X7 )  ( <= ( + Y7 51 ) Y15 )  ( <= ( + Y15 93 ) Y7 )  )
( or ( <= ( + X7 99 ) X16 )  ( <= ( + X16 53 ) X7 )  ( <= ( + Y7 51 ) Y16 )  ( <= ( + Y16 15 ) Y7 )  )
( or ( <= ( + X7 99 ) X17 )  ( <= ( + X17 87 ) X7 )  ( <= ( + Y7 51 ) Y17 )  ( <= ( + Y17 47 ) Y7 )  )
( or ( <= ( + X8 53 ) X9 )  ( <= ( + X9 83 ) X8 )  ( <= ( + Y8 19 ) Y9 )  ( <= ( + Y9 77 ) Y8 )  )
( or ( <= ( + X8 53 ) X10 )  ( <= ( + X10 74 ) X8 )  ( <= ( + Y8 19 ) Y10 )  ( <= ( + Y10 22 ) Y8 )  )
( or ( <= ( + X8 53 ) X11 )  ( <= ( + X11 32 ) X8 )  ( <= ( + Y8 19 ) Y11 )  ( <= ( + Y11 95 ) Y8 )  )
( or ( <= ( + X8 53 ) X12 )  ( <= ( + X12 98 ) X8 )  ( <= ( + Y8 19 ) Y12 )  ( <= ( + Y12 10 ) Y8 )  )
( or ( <= ( + X8 53 ) X13 )  ( <= ( + X13 71 ) X8 )  ( <= ( + Y8 19 ) Y13 )  ( <= ( + Y13 67 ) Y8 )  )
( or ( <= ( + X8 53 ) X14 )  ( <= ( + X14 25 ) X8 )  ( <= ( + Y8 19 ) Y14 )  ( <= ( + Y14 21 ) Y8 )  )
( or ( <= ( + X8 53 ) X15 )  ( <= ( + X15 7 ) X8 )  ( <= ( + Y8 19 ) Y15 )  ( <= ( + Y15 93 ) Y8 )  )
( or ( <= ( + X8 53 ) X16 )  ( <= ( + X16 53 ) X8 )  ( <= ( + Y8 19 ) Y16 )  ( <= ( + Y16 15 ) Y8 )  )
( or ( <= ( + X8 53 ) X17 )  ( <= ( + X17 87 ) X8 )  ( <= ( + Y8 19 ) Y17 )  ( <= ( + Y17 47 ) Y8 )  )
( or ( <= ( + X9 83 ) X10 )  ( <= ( + X10 74 ) X9 )  ( <= ( + Y9 77 ) Y10 )  ( <= ( + Y10 22 ) Y9 )  )
( or ( <= ( + X9 83 ) X11 )  ( <= ( + X11 32 ) X9 )  ( <= ( + Y9 77 ) Y11 )  ( <= ( + Y11 95 ) Y9 )  )
( or ( <= ( + X9 83 ) X12 )  ( <= ( + X12 98 ) X9 )  ( <= ( + Y9 77 ) Y12 )  ( <= ( + Y12 10 ) Y9 )  )
( or ( <= ( + X9 83 ) X13 )  ( <= ( + X13 71 ) X9 )  ( <= ( + Y9 77 ) Y13 )  ( <= ( + Y13 67 ) Y9 )  )
( or ( <= ( + X9 83 ) X14 )  ( <= ( + X14 25 ) X9 )  ( <= ( + Y9 77 ) Y14 )  ( <= ( + Y14 21 ) Y9 )  )
( or ( <= ( + X9 83 ) X15 )  ( <= ( + X15 7 ) X9 )  ( <= ( + Y9 77 ) Y15 )  ( <= ( + Y15 93 ) Y9 )  )
( or ( <= ( + X9 83 ) X16 )  ( <= ( + X16 53 ) X9 )  ( <= ( + Y9 77 ) Y16 )  ( <= ( + Y16 15 ) Y9 )  )
( or ( <= ( + X9 83 ) X17 )  ( <= ( + X17 87 ) X9 )  ( <= ( + Y9 77 ) Y17 )  ( <= ( + Y17 47 ) Y9 )  )
( or ( <= ( + X10 74 ) X11 )  ( <= ( + X11 32 ) X10 )  ( <= ( + Y10 22 ) Y11 )  ( <= ( + Y11 95 ) Y10 )  )
( or ( <= ( + X10 74 ) X12 )  ( <= ( + X12 98 ) X10 )  ( <= ( + Y10 22 ) Y12 )  ( <= ( + Y12 10 ) Y10 )  )
( or ( <= ( + X10 74 ) X13 )  ( <= ( + X13 71 ) X10 )  ( <= ( + Y10 22 ) Y13 )  ( <= ( + Y13 67 ) Y10 )  )
( or ( <= ( + X10 74 ) X14 )  ( <= ( + X14 25 ) X10 )  ( <= ( + Y10 22 ) Y14 )  ( <= ( + Y14 21 ) Y10 )  )
( or ( <= ( + X10 74 ) X15 )  ( <= ( + X15 7 ) X10 )  ( <= ( + Y10 22 ) Y15 )  ( <= ( + Y15 93 ) Y10 )  )
( or ( <= ( + X10 74 ) X16 )  ( <= ( + X16 53 ) X10 )  ( <= ( + Y10 22 ) Y16 )  ( <= ( + Y16 15 ) Y10 )  )
( or ( <= ( + X10 74 ) X17 )  ( <= ( + X17 87 ) X10 )  ( <= ( + Y10 22 ) Y17 )  ( <= ( + Y17 47 ) Y10 )  )
( or ( <= ( + X11 32 ) X12 )  ( <= ( + X12 98 ) X11 )  ( <= ( + Y11 95 ) Y12 )  ( <= ( + Y12 10 ) Y11 )  )
( or ( <= ( + X11 32 ) X13 )  ( <= ( + X13 71 ) X11 )  ( <= ( + Y11 95 ) Y13 )  ( <= ( + Y13 67 ) Y11 )  )
( or ( <= ( + X11 32 ) X14 )  ( <= ( + X14 25 ) X11 )  ( <= ( + Y11 95 ) Y14 )  ( <= ( + Y14 21 ) Y11 )  )
( or ( <= ( + X11 32 ) X15 )  ( <= ( + X15 7 ) X11 )  ( <= ( + Y11 95 ) Y15 )  ( <= ( + Y15 93 ) Y11 )  )
( or ( <= ( + X11 32 ) X16 )  ( <= ( + X16 53 ) X11 )  ( <= ( + Y11 95 ) Y16 )  ( <= ( + Y16 15 ) Y11 )  )
( or ( <= ( + X11 32 ) X17 )  ( <= ( + X17 87 ) X11 )  ( <= ( + Y11 95 ) Y17 )  ( <= ( + Y17 47 ) Y11 )  )
( or ( <= ( + X12 98 ) X13 )  ( <= ( + X13 71 ) X12 )  ( <= ( + Y12 10 ) Y13 )  ( <= ( + Y13 67 ) Y12 )  )
( or ( <= ( + X12 98 ) X14 )  ( <= ( + X14 25 ) X12 )  ( <= ( + Y12 10 ) Y14 )  ( <= ( + Y14 21 ) Y12 )  )
( or ( <= ( + X12 98 ) X15 )  ( <= ( + X15 7 ) X12 )  ( <= ( + Y12 10 ) Y15 )  ( <= ( + Y15 93 ) Y12 )  )
( or ( <= ( + X12 98 ) X16 )  ( <= ( + X16 53 ) X12 )  ( <= ( + Y12 10 ) Y16 )  ( <= ( + Y16 15 ) Y12 )  )
( or ( <= ( + X12 98 ) X17 )  ( <= ( + X17 87 ) X12 )  ( <= ( + Y12 10 ) Y17 )  ( <= ( + Y17 47 ) Y12 )  )
( or ( <= ( + X13 71 ) X14 )  ( <= ( + X14 25 ) X13 )  ( <= ( + Y13 67 ) Y14 )  ( <= ( + Y14 21 ) Y13 )  )
( or ( <= ( + X13 71 ) X15 )  ( <= ( + X15 7 ) X13 )  ( <= ( + Y13 67 ) Y15 )  ( <= ( + Y15 93 ) Y13 )  )
( or ( <= ( + X13 71 ) X16 )  ( <= ( + X16 53 ) X13 )  ( <= ( + Y13 67 ) Y16 )  ( <= ( + Y16 15 ) Y13 )  )
( or ( <= ( + X13 71 ) X17 )  ( <= ( + X17 87 ) X13 )  ( <= ( + Y13 67 ) Y17 )  ( <= ( + Y17 47 ) Y13 )  )
( or ( <= ( + X14 25 ) X15 )  ( <= ( + X15 7 ) X14 )  ( <= ( + Y14 21 ) Y15 )  ( <= ( + Y15 93 ) Y14 )  )
( or ( <= ( + X14 25 ) X16 )  ( <= ( + X16 53 ) X14 )  ( <= ( + Y14 21 ) Y16 )  ( <= ( + Y16 15 ) Y14 )  )
( or ( <= ( + X14 25 ) X17 )  ( <= ( + X17 87 ) X14 )  ( <= ( + Y14 21 ) Y17 )  ( <= ( + Y17 47 ) Y14 )  )
( or ( <= ( + X15 7 ) X16 )  ( <= ( + X16 53 ) X15 )  ( <= ( + Y15 93 ) Y16 )  ( <= ( + Y16 15 ) Y15 )  )
( or ( <= ( + X15 7 ) X17 )  ( <= ( + X17 87 ) X15 )  ( <= ( + Y15 93 ) Y17 )  ( <= ( + Y17 47 ) Y15 )  )
( or ( <= ( + X16 53 ) X17 )  ( <= ( + X17 87 ) X16 )  ( <= ( + Y16 15 ) Y17 )  ( <= ( + Y17 47 ) Y16 )  )
( >= X0 0)
( <= ( + X0 94) Z)
( >= Y0 0)
( <= ( + Y0 97 ) 100)
( >= X1 0)
( <= ( + X1 27) Z)
( >= Y1 0)
( <= ( + Y1 71 ) 100)
( >= X2 0)
( <= ( + X2 32) Z)
( >= Y2 0)
( <= ( + Y2 71 ) 100)
( >= X3 0)
( <= ( + X3 48) Z)
( >= Y3 0)
( <= ( + Y3 32 ) 100)
( >= X4 0)
( <= ( + X4 74) Z)
( >= Y4 0)
( <= ( + Y4 92 ) 100)
( >= X5 0)
( <= ( + X5 5) Z)
( >= Y5 0)
( <= ( + Y5 15 ) 100)
( >= X6 0)
( <= ( + X6 23) Z)
( >= Y6 0)
( <= ( + Y6 60 ) 100)
( >= X7 0)
( <= ( + X7 99) Z)
( >= Y7 0)
( <= ( + Y7 51 ) 100)
( >= X8 0)
( <= ( + X8 53) Z)
( >= Y8 0)
( <= ( + Y8 19 ) 100)
( >= X9 0)
( <= ( + X9 83) Z)
( >= Y9 0)
( <= ( + Y9 77 ) 100)
( >= X10 0)
( <= ( + X10 74) Z)
( >= Y10 0)
( <= ( + Y10 22 ) 100)
( >= X11 0)
( <= ( + X11 32) Z)
( >= Y11 0)
( <= ( + Y11 95 ) 100)
( >= X12 0)
( <= ( + X12 98) Z)
( >= Y12 0)
( <= ( + Y12 10 ) 100)
( >= X13 0)
( <= ( + X13 71) Z)
( >= Y13 0)
( <= ( + Y13 67 ) 100)
( >= X14 0)
( <= ( + X14 25) Z)
( >= Y14 0)
( <= ( + Y14 21 ) 100)
( >= X15 0)
( <= ( + X15 7) Z)
( >= Y15 0)
( <= ( + Y15 93 ) 100)
( >= X16 0)
( <= ( + X16 53) Z)
( >= Y16 0)
( <= ( + Y16 15 ) 100)
( >= X17 0)
( <= ( + X17 87) Z)
( >= Y17 0)
( <= ( + Y17 47 ) 100)
) )
(minimize Z)
(check-sat)
